c nIsolatedPIs 12
c maxPI 20
p cnf 94 223
c gate 21 9 19 0
9 -21 0
19 -21 0
-9 -19 21 0
c gate 22 -9 -19 0
-9 -22 0
-19 -22 0
9 19 22 0
c gate 23 8 18 0
8 -23 0
18 -23 0
-8 -18 23 0
c gate 24 -6 -16 0
-6 -24 0
-16 -24 0
6 16 24 0
c gate 25 -7 -17 0
-7 -25 0
-17 -25 0
7 17 25 0
c gate 26 -24 -25 0
-24 -26 0
-25 -26 0
24 25 26 0
c gate 27 5 15 0
5 -27 0
15 -27 0
-5 -15 27 0
c gate 28 -4 -14 0
-4 -28 0
-14 -28 0
4 14 28 0
c gate 29 4 14 0
4 -29 0
14 -29 0
-4 -14 29 0
c gate 30 3 13 0
3 -30 0
13 -30 0
-3 -13 30 0
c gate 31 -29 -30 0
-29 -31 0
-30 -31 0
29 30 31 0
c gate 32 1 11 0
1 -32 0
11 -32 0
-1 -11 32 0
c gate 33 -2 -32 0
-2 -33 0
-32 -33 0
2 32 33 0
c gate 34 12 -33 0
12 -34 0
-33 -34 0
-12 33 34 0
c gate 35 31 -34 0
31 -35 0
-34 -35 0
-31 34 35 0
c gate 36 -28 -35 0
-28 -36 0
-35 -36 0
28 35 36 0
c gate 37 -27 -36 0
-27 -37 0
-36 -37 0
27 36 37 0
c gate 38 26 -37 0
26 -38 0
-37 -38 0
-26 37 38 0
c gate 39 -23 -38 0
-23 -39 0
-38 -39 0
23 38 39 0
c gate 40 -22 -39 0
-22 -40 0
-39 -40 0
22 39 40 0
c gate 41 -21 -40 0
-21 -41 0
-40 -41 0
21 40 41 0
c gate 42 7 17 0
7 -42 0
17 -42 0
-7 -17 42 0
c gate 43 -5 -15 0
-5 -43 0
-15 -43 0
5 15 43 0
c gate 44 -2 12 0
-2 -44 0
12 -44 0
2 -12 44 0
c gate 45 2 -12 0
2 -45 0
-12 -45 0
-2 12 45 0
c gate 46 -44 -45 0
-44 -46 0
-45 -46 0
44 45 46 0
c gate 47 32 -46 0
32 -47 0
-46 -47 0
-32 46 47 0
c gate 48 -34 -47 0
-34 -48 0
-47 -48 0
34 47 48 0
c gate 49 -3 -13 0
-3 -49 0
-13 -49 0
3 13 49 0
c gate 50 -48 -49 0
-48 -50 0
-49 -50 0
48 49 50 0
c gate 51 31 -50 0
31 -51 0
-50 -51 0
-31 50 51 0
c gate 52 -43 -51 0
-43 -52 0
-51 -52 0
43 51 52 0
c gate 53 -28 52 0
-28 -53 0
52 -53 0
28 -52 53 0
c gate 54 6 16 0
6 -54 0
16 -54 0
-6 -16 54 0
c gate 55 -27 -54 0
-27 -55 0
-54 -55 0
27 54 55 0
c gate 56 -53 55 0
-53 -56 0
55 -56 0
53 -55 56 0
c gate 57 26 -56 0
26 -57 0
-56 -57 0
-26 56 57 0
c gate 58 -42 -57 0
-42 -58 0
-57 -58 0
42 57 58 0
c gate 59 -8 -18 0
-8 -59 0
-18 -59 0
8 18 59 0
c gate 60 -58 -59 0
-58 -60 0
-59 -60 0
58 59 60 0
c gate 61 -21 -23 0
-21 -61 0
-23 -61 0
21 23 61 0
c gate 62 -60 61 0
-60 -62 0
61 -62 0
60 -61 62 0
c gate 63 -22 -62 0
-22 -63 0
-62 -63 0
22 62 63 0
c gate 64 41 -63 0
41 -64 0
-63 -64 0
-41 63 64 0
c gate 65 -41 -62 0
-41 -65 0
-62 -65 0
41 62 65 0
c gate 66 -10 -20 0
-10 -66 0
-20 -66 0
10 20 66 0
c gate 67 10 20 0
10 -67 0
20 -67 0
-10 -20 67 0
c gate 68 -66 -67 0
-66 -68 0
-67 -68 0
66 67 68 0
c gate 69 -65 68 0
-65 -69 0
68 -69 0
65 -68 69 0
c gate 70 -64 69 0
-64 -70 0
69 -70 0
64 -69 70 0
c gate 71 -23 38 0
-23 -71 0
38 -71 0
23 -38 71 0
c gate 72 -60 71 0
-60 -72 0
71 -72 0
60 -71 72 0
c gate 73 -58 -71 0
-58 -73 0
-71 -73 0
58 71 73 0
c gate 74 -36 56 0
-36 -74 0
56 -74 0
36 -56 74 0
c gate 75 36 52 0
36 -75 0
52 -75 0
-36 -52 75 0
c gate 76 -27 -75 0
-27 -76 0
-75 -76 0
27 75 76 0
c gate 77 -74 76 0
-74 -77 0
76 -77 0
74 -76 77 0
c gate 78 -1 11 0
-1 -78 0
11 -78 0
1 -11 78 0
c gate 79 -45 78 0
-45 -79 0
78 -79 0
45 -78 79 0
c gate 80 -3 13 0
-3 -80 0
13 -80 0
3 -13 80 0
c gate 81 -44 -80 0
-44 -81 0
-80 -81 0
44 80 81 0
c gate 82 -79 81 0
-79 -82 0
81 -82 0
79 -81 82 0
c gate 83 3 -13 0
3 -83 0
-13 -83 0
-3 13 83 0
c gate 84 4 -14 0
4 -84 0
-14 -84 0
-4 14 84 0
c gate 85 -83 84 0
-83 -85 0
84 -85 0
83 -84 85 0
c gate 86 -82 85 0
-82 -86 0
85 -86 0
82 -85 86 0
c gate 87 -80 -83 0
-80 -87 0
-83 -87 0
80 83 87 0
c gate 88 34 87 0
34 -88 0
87 -88 0
-34 -87 88 0
c gate 89 -47 -88 0
-47 -89 0
-88 -89 0
47 88 89 0
c gate 90 -86 89 0
-86 -90 0
89 -90 0
86 -89 90 0
c gate 91 -77 90 0
-77 -91 0
90 -91 0
77 -90 91 0
c gate 92 -73 91 0
-73 -92 0
91 -92 0
73 -91 92 0
c gate 93 -72 92 0
-72 -93 0
92 -93 0
72 -92 93 0
c gate 94 -70 93 0
-70 -94 0
93 -94 0
70 -93 94 0
c PO
-94 0
